p cnf 10 27
8 -7 10 4 0
8 0
-6 6 0
-7 3 -10 0
-2 -9 0
3 -1 -2 6 0
-1 0
8 -8 10 0
10 5 -10 0
-7 -6 -3 0
2 0
-8 1 2 -1 0
-4 -1 0
8 2 3 0
1 3 0
-8 9 5 7 0
-5 4 6 0
-8 -7 -6 8 0
9 2 -7 0
-5 7 0
2 3 7 0
-8 2 7 0
-8 9 2 0
8 9 5 -9 0
8 -3 -9 0
7 0
3 -1 -9 0
